19 31181 40
1945 4990
321 1142
2945 7390
4136 10372
1107 3114
1022 2744
1101 3102
2890 7280
962 2624
1060 3020
805 2310
689 2078
1513 3926
3878 9656
13504 32708
1865 4830
667 2034
1833 4766
16553 40006
14 3
1 12
12 14
5 16
1 16
14 16
10 17
9 14
11 15
13 17
18 5
2 4
3 7
11 2
1 6
14 5
14 13
18 17
7 2
5 10
3 5
12 5
1 13
9 7
0 9
1 14
9 17
2 16
1 4
10 0
6 12
10 9
9 4
8 13
6 9
12 16
3 4
7 17
18 12
6 18
